letting n =  10
letting blocks =  [[1, 3], [1, 5], [1, 6], [2, 1], [2, 2], [2, 5], [2, 6], [2, 8], [2, 9], [3, 1], [3, 2], [3, 4], [3, 5], [3, 8], [3, 9], [4, 2], [4, 3], [4, 9], [4, 10], [5, 9], [6, 5], [6, 6], [6, 7], [6, 10], [7, 3], [7, 4], [7, 7], [7, 8], [8, 1], [8, 2], [8, 4], [8, 6], [8, 8], [8, 9], [9, 3], [9, 4], [9, 5], [9, 8], [10, 2], [10, 3], [10, 8], [10, 9]]
